c ind 13 15 16 18 19 25 30 32 4 5 0
c ind 9 0
p cnf 32 86
-1 -2 6 0
-1 2 31 0
-10 -11 17 0
-10 11 20 0
-11 12 0
-11 14 0
-12 -13 9 0
-12 -9 13 0
-14 -15 16 0
-14 -16 15 0
-16 0
-17 -18 19 0
-17 -19 18 0
-2 -3 0
-20 -21 24 0
-20 21 26 0
-21 22 0
-21 23 0
-22 -13 16 0
-22 -16 13 0
-23 -15 9 0
-23 -9 15 0
-24 -18 25 0
-24 -25 18 0
-26 -27 28 0
-26 27 29 0
-27 12 0
-27 23 0
-28 -16 18 0
-28 -18 16 0
-29 -18 30 0
-29 -30 18 0
-3 -4 5 0
-3 -5 4 0
-31 -18 32 0
-31 -32 18 0
-6 -7 10 0
-6 7 31 0
-7 2 0
-7 8 0
-8 -4 9 0
-8 -9 4 0
1 -2 -6 0
1 -6 -31 0
1 0
1 2 -31 0
10 -11 -17 0
10 -17 -20 0
10 11 -20 0
11 -12 -14 0
12 -13 -9 0
12 13 9 0
14 -15 -16 0
14 15 16 0
17 -18 -19 0
17 18 19 0
2 3 0
20 -21 -24 0
20 -24 -26 0
20 21 -26 0
21 -22 -23 0
22 -13 -16 0
22 13 16 0
23 -15 -9 0
23 15 9 0
24 -18 -25 0
24 18 25 0
26 -27 -28 0
26 -28 -29 0
26 27 -29 0
27 -12 -23 0
28 -18 -16 0
28 18 16 0
29 -18 -30 0
29 18 30 0
3 -4 -5 0
3 4 5 0
31 -18 -32 0
31 18 32 0
6 -10 -31 0
6 -7 -10 0
6 7 -31 0
7 -2 -8 0
8 -4 -9 0
8 4 9 0
9 0
